(set-info :status unknown)
(declare-fun %Y () (_ BitVec 18))
(declare-fun %X () (_ BitVec 18))
(assert
 (let (($x19234 (and (distinct (bvudiv ((_ zero_extend 21) %X) ((_ zero_extend 21) %Y)) ((_ zero_extend 21) (bvudiv %X %Y))) true)))
 (and (and (distinct ((_ zero_extend 21) %Y) (_ bv0 39)) true) $x19234)))
(check-sat)
